2025-10-19 00:25:46,158 - INFO - 📌 第一个 epoch：默认所有模块使用 checkpoint
2025-10-19 00:25:56,555 - INFO - Epoch 1 completed in 10.414716 seconds
2025-10-19 00:25:59,389 - INFO - torch.cuda.max_memory_reserved() : 9.49609375
2025-10-19 00:26:09,633 - INFO - 
[🔁 拟合反向传播时间模型]
2025-10-19 00:26:09,634 - INFO - 总反向传播时间: 10.165164s
2025-10-19 00:26:09,634 - INFO - 拟合模型: backward_total ≈ 2 × (A + B) + b
2025-10-19 00:26:09,634 - INFO - A = 7.122481, B = 0.441615, b = 2.601068s
2025-10-19 00:26:09,654 - INFO - Set parameter LicenseID to value 2706656
2025-10-19 00:26:09,678 - INFO - Set parameter LogToConsole to value 1
2025-10-19 00:26:09,679 - INFO - Set parameter LogFile to value ""
2025-10-19 00:26:09,679 - INFO - Set parameter Threads to value 12
2025-10-19 00:26:09,679 - INFO - Set parameter TimeLimit to value 3600
2025-10-19 00:26:09,679 - INFO - Set parameter OptimalityTol to value 0.0001
2025-10-19 00:26:09,679 - INFO - Set parameter IntFeasTol to value 1e-05
2025-10-19 00:26:09,679 - INFO - Set parameter StartNodeLimit to value 10000000
2025-10-19 00:26:09,739 - INFO - Set parameter TimeLimit to value 3600
2025-10-19 00:26:09,739 - INFO - 
2025-10-19 00:26:09,739 - INFO - 
2025-10-19 00:26:09,739 - INFO - Restarting solve
2025-10-19 00:26:09,739 - INFO - 
2025-10-19 00:26:09,739 - INFO - 
2025-10-19 00:26:09,741 - INFO - Gurobi Optimizer version 12.0.3 build v12.0.3rc0 (linux64 - "Ubuntu 20.04.6 LTS")
2025-10-19 00:26:09,741 - INFO - 
2025-10-19 00:26:09,741 - INFO - CPU model: Intel(R) Xeon(R) Platinum 8260 CPU @ 2.40GHz, instruction set [SSE2|AVX|AVX2|AVX512]
2025-10-19 00:26:09,741 - INFO - Thread count: 48 physical cores, 96 logical processors, using up to 12 threads
2025-10-19 00:26:09,741 - INFO - 
2025-10-19 00:26:09,741 - INFO - Non-default parameters:
2025-10-19 00:26:09,741 - INFO - TimeLimit  3600
2025-10-19 00:26:09,741 - INFO - OptimalityTol  0.0001
2025-10-19 00:26:09,741 - INFO - StartNodeLimit  10000000
2025-10-19 00:26:09,741 - INFO - Threads  12
2025-10-19 00:26:09,741 - INFO - 
2025-10-19 00:26:09,741 - INFO - Optimize a model with 5603 rows, 3584 columns and 15200 nonzeros
2025-10-19 00:26:09,741 - INFO - Model fingerprint: 0x72983921
2025-10-19 00:26:09,741 - INFO - Variable types: 1024 continuous, 2560 integer (2560 binary)
2025-10-19 00:26:09,742 - INFO - Coefficient statistics:
2025-10-19 00:26:09,742 - INFO -   Matrix range     [1e+00, 4e+15]
2025-10-19 00:26:09,742 - INFO -   Objective range  [1e+05, 1e+06]
2025-10-19 00:26:09,742 - INFO -   Bounds range     [1e+00, 2e+16]
2025-10-19 00:26:09,742 - INFO -   RHS range        [1e+00, 2e+16]
2025-10-19 00:26:09,742 - INFO - Warning: Model contains large matrix coefficient range
2025-10-19 00:26:09,742 - INFO - Warning: Model contains large rhs
2025-10-19 00:26:09,742 - INFO - Warning: Model contains large bounds
2025-10-19 00:26:09,742 - INFO -          Consider reformulating model or setting NumericFocus parameter
2025-10-19 00:26:09,742 - INFO -          to avoid numerical issues.
2025-10-19 00:26:09,757 - INFO - Presolve removed 4283 rows and 1964 columns
2025-10-19 00:26:09,757 - INFO - Presolve time: 0.01s
2025-10-19 00:26:09,757 - INFO - Presolved: 1320 rows, 1620 columns, 4514 nonzeros
2025-10-19 00:26:09,758 - INFO - Variable types: 0 continuous, 1620 integer (1095 binary)
2025-10-19 00:26:09,770 - INFO - 
2025-10-19 00:26:09,770 - INFO - Root relaxation: objective 2.259751e+07, 497 iterations, 0.00 seconds (0.01 work units)
2025-10-19 00:26:09,781 - INFO - 
2025-10-19 00:26:09,781 - INFO -     Nodes    |    Current Node    |     Objective Bounds      |     Work
2025-10-19 00:26:09,781 - INFO -  Expl Unexpl |  Obj  Depth IntInf | Incumbent    BestBd   Gap | It/Node Time
2025-10-19 00:26:09,781 - INFO - 
2025-10-19 00:26:09,781 - INFO -      0     0 2.2598e+07    0   65          - 2.2598e+07      -     -    0s
2025-10-19 00:26:09,824 - INFO -      0     0 2.2615e+07    0  243          - 2.2615e+07      -     -    0s
2025-10-19 00:26:09,829 - INFO -      0     0 2.2626e+07    0   64          - 2.2626e+07      -     -    0s
2025-10-19 00:26:09,842 - INFO -      0     0 2.2642e+07    0  184          - 2.2642e+07      -     -    0s
2025-10-19 00:26:09,853 - INFO -      0     0 2.2642e+07    0  233          - 2.2642e+07      -     -    0s
2025-10-19 00:26:09,866 - INFO -      0     0 2.2642e+07    0  241          - 2.2642e+07      -     -    0s
2025-10-19 00:26:09,879 - INFO -      0     0 2.2642e+07    0  276          - 2.2642e+07      -     -    0s
2025-10-19 00:26:09,931 - INFO -      0     2 2.2643e+07    0  276          - 2.2643e+07      -     -    0s
2025-10-19 00:26:09,959 - INFO - *   48    86               6    2.279388e+07 2.2662e+07  0.58%   9.6    0s
2025-10-19 00:26:09,968 - INFO - *   93    35              10    2.274135e+07 2.2662e+07  0.35%   7.5    0s
2025-10-19 00:26:09,970 - INFO - 
2025-10-19 00:26:09,970 - INFO - Cutting planes:
2025-10-19 00:26:09,970 - INFO -   Cover: 23
2025-10-19 00:26:09,971 - INFO - 
2025-10-19 00:26:09,971 - INFO - Explored 179 nodes (1887 simplex iterations) in 0.23 seconds (0.16 work units)
2025-10-19 00:26:09,971 - INFO - Thread count was 12 (of 96 available processors)
2025-10-19 00:26:09,971 - INFO - 
2025-10-19 00:26:09,971 - INFO - Solution count 2: 2.27413e+07 2.27939e+07 
2025-10-19 00:26:09,971 - INFO - 
2025-10-19 00:26:09,971 - INFO - Optimal solution found (tolerance 1.00e-04)
2025-10-19 00:26:09,971 - INFO - Best objective 2.274134900000e+07, best bound 2.274134900000e+07, gap 0.0000%
2025-10-19 00:26:09,983 - INFO - 规划前的显存GB：14.0
2025-10-19 00:26:09,983 - INFO - 规划后的显存GB：12.955451488494873
2025-10-19 00:26:09,983 - INFO - ✅ 最优策略：[1, 1, 1, 1, 1, 1, 1, 1, 0, 0, 0, 0, 0, 0, 1, 0]
2025-10-19 00:26:09,983 - INFO - 📌 checkpoint 的欧氏长度:, []
2025-10-19 00:26:09,983 - INFO - 📌 checkpoint 的余弦长度:, [14, 28, 42, 57, 71, 86, 115]
2025-10-19 00:26:09,983 - INFO - 💾 最终显存峰值：%.2f MB % 19807.36321258545
2025-10-19 00:26:09,994 - INFO - Epoch 2 completed in 10.604347 seconds
2025-10-19 00:26:09,994 - INFO - torch.cuda.max_memory_reserved() : 9.49609375
2025-10-19 00:26:17,942 - INFO - Epoch 3 completed in 7.947824 seconds
2025-10-19 00:26:17,942 - INFO - 
====================== [第1个 Epoch 收集统计数据] ======================
2025-10-19 00:26:17,942 - INFO - 
🔍 EUCLIDEAN modules:
2025-10-19 00:26:17,942 - INFO - [Shapelet  14] forward_avg=0.008374s over 16 calls | peak=733.24MB | final=0.00MB
2025-10-19 00:26:17,943 - INFO - [Shapelet  28] forward_avg=0.009276s over 16 calls | peak=1257.07MB | final=0.00MB
2025-10-19 00:26:17,943 - INFO - [Shapelet  42] forward_avg=0.011920s over 16 calls | peak=1641.29MB | final=0.00MB
2025-10-19 00:26:17,943 - INFO - [Shapelet  57] forward_avg=0.012999s over 16 calls | peak=1901.19MB | final=0.00MB
2025-10-19 00:26:17,943 - INFO - [Shapelet  71] forward_avg=0.013664s over 16 calls | peak=2000.96MB | final=0.00MB
2025-10-19 00:26:17,943 - INFO - [Shapelet  86] forward_avg=0.013173s over 16 calls | peak=1952.37MB | final=0.00MB
2025-10-19 00:26:17,943 - INFO - [Shapelet 100] forward_avg=0.013038s over 16 calls | peak=1765.30MB | final=0.00MB
2025-10-19 00:26:17,943 - INFO - [Shapelet 115] forward_avg=0.011559s over 16 calls | peak=1411.02MB | final=0.00MB
2025-10-19 00:26:17,943 - INFO - 
🔍 COSINE modules:
2025-10-19 00:26:17,943 - INFO - [Shapelet  14] forward_avg=0.004478s over 16 calls | peak=446.59MB | final=0.00MB
2025-10-19 00:26:17,943 - INFO - [Shapelet  28] forward_avg=0.004848s over 16 calls | peak=783.97MB | final=0.00MB
2025-10-19 00:26:17,943 - INFO - [Shapelet  42] forward_avg=0.006390s over 16 calls | peak=1029.18MB | final=0.00MB
2025-10-19 00:26:17,943 - INFO - [Shapelet  57] forward_avg=0.007254s over 16 calls | peak=1190.34MB | final=0.00MB
2025-10-19 00:26:17,943 - INFO - [Shapelet  71] forward_avg=0.007672s over 16 calls | peak=1244.70MB | final=0.00MB
2025-10-19 00:26:17,943 - INFO - [Shapelet  86] forward_avg=0.007955s over 16 calls | peak=1199.87MB | final=0.00MB
2025-10-19 00:26:17,943 - INFO - [Shapelet 100] forward_avg=0.008306s over 16 calls | peak=1063.27MB | final=0.00MB
2025-10-19 00:26:17,943 - INFO - [Shapelet 115] forward_avg=0.007479s over 16 calls | peak=815.09MB | final=0.00MB
2025-10-19 00:26:17,943 - INFO - 
🔍 CROSS modules:
2025-10-19 00:26:17,943 - INFO - [Shapelet  14] forward_avg=0.001141s over 16 calls
2025-10-19 00:26:17,943 - INFO - [Shapelet  28] forward_avg=0.001633s over 16 calls
2025-10-19 00:26:17,943 - INFO - [Shapelet  42] forward_avg=0.001567s over 16 calls
2025-10-19 00:26:17,943 - INFO - [Shapelet  57] forward_avg=0.001923s over 16 calls
2025-10-19 00:26:17,943 - INFO - [Shapelet  71] forward_avg=0.002145s over 16 calls
2025-10-19 00:26:17,943 - INFO - [Shapelet  86] forward_avg=0.001927s over 16 calls
2025-10-19 00:26:17,943 - INFO - [Shapelet 100] forward_avg=0.001994s over 16 calls
2025-10-19 00:26:17,943 - INFO - [Shapelet 115] forward_avg=0.001469s over 16 calls
2025-10-19 00:26:17,943 - INFO - 
💾 模型第一次反向传播阶段的显存峰值（所有模块中的最大值）: 12383.70 MB
2025-10-19 00:26:17,943 - INFO - 
💾 模型初始显存: 128.80 MB
2025-10-19 00:26:17,943 - INFO - =======================================================================

2025-10-19 00:26:17,944 - INFO - torch.cuda.max_memory_reserved() : 15.28125
2025-10-19 00:26:26,481 - INFO - Epoch 4 completed in 8.537026 seconds
2025-10-19 00:26:26,482 - INFO - torch.cuda.max_memory_reserved() : 15.28125
2025-10-19 00:26:34,949 - INFO - Epoch 5 completed in 8.466434 seconds
2025-10-19 00:26:34,949 - INFO - torch.cuda.max_memory_reserved() : 15.28125
2025-10-19 00:26:43,462 - INFO - Epoch 6 completed in 8.512779 seconds
2025-10-19 00:26:43,463 - INFO - torch.cuda.max_memory_reserved() : 15.28125
2025-10-19 00:26:51,730 - INFO - Epoch 7 completed in 8.266551 seconds
2025-10-19 00:26:51,730 - INFO - torch.cuda.max_memory_reserved() : 15.28125
2025-10-19 00:27:00,548 - INFO - Epoch 8 completed in 8.817329 seconds
2025-10-19 00:27:00,549 - INFO - torch.cuda.max_memory_reserved() : 15.28125
2025-10-19 00:27:08,730 - INFO - Epoch 9 completed in 8.179824 seconds
2025-10-19 00:27:08,730 - INFO - torch.cuda.max_memory_reserved() : 15.28125
2025-10-19 00:27:17,643 - INFO - Epoch 10 completed in 8.911834 seconds
2025-10-19 00:27:20,595 - INFO - torch.cuda.max_memory_reserved() : 15.28125
2025-10-19 00:27:20,596 - INFO - !!!采用策略后的几个epoch 平均时间:8.454950004816055
2025-10-19 00:27:20,596 - INFO - 



